W=5;
H=5;

MAX_TIME=29;
MAX_TRACKS=14;

TARGET=(4,5);

N_TRAINS=2;
TRAINS=[(1,2,RIGHT),(5,5,LEFT)];

N_INIT_POS=7;
INIT_POS=[
(1,2,STRAIGHT_RL),
(1,4,STRAIGHT_RL),
(2,5,STRAIGHT_TD),
(4,1,STRAIGHT_TD),
(4,5,STRAIGHT_RL),
(5,2,STRAIGHT_RL),
(5,5,STRAIGHT_RL),
];
N_TUNNELS=0;
TUNNEL_PAIRS=[];

N_GATES=0;
GATES=[];
N_ACTIVATIONS=0;
ACTIVATIONS=[];

N_DSWITCHES=0;
DSWITCHES=[];
N_STATIONS=4;
STATIONS=[
  (1,4,2),
  (2,5,1),
  (4,1,2),
  (5,2,1),
];
